Please solve the following SAT Problem encoded in DIMACS format, provide line of thoughts, write your final answer as a single solution at the end of response with header 'answer: ' : 
p cnf 10 65
2 -6 -9 0
4 -10 -3 0
3 10 8 0
7 10 6 0
10 -2 1 0
7 -2 -9 0
-10 -6 -2 0
-6 1 -2 0
4 1 -7 0
-5 8 3 0
10 -6 -5 0
-9 -7 4 0
-6 8 -2 0
-9 -6 -5 0
-7 1 -5 0
1 10 -6 0
4 -9 8 0
-4 -3 10 0
-7 -4 10 0
-9 8 -6 0
6 -5 -7 0
-2 10 -5 0
-2 7 -3 0
4 -9 -2 0
-5 7 9 0
-5 -6 10 0
8 4 -3 0
-9 -3 7 0
-6 -9 1 0
10 4 5 0
-7 -5 8 0
-5 1 -6 0
10 -6 -2 0
4 -5 -9 0
-6 -2 -1 0
7 -3 6 0
-5 -3 4 0
8 -6 1 0
5 -2 4 0
1 10 4 0
-8 -3 -7 0
-6 -3 10 0
1 -7 -2 0
-9 8 -7 0
1 -8 -6 0
-10 -6 4 0
10 8 1 0
8 -5 -9 0
5 -9 3 0
10 -3 -2 0
1 -6 -5 0
-3 1 4 0
4 8 -6 0
-5 7 10 0
4 1 -7 0
-9 1 -3 0
-7 -9 -10 0
10 -2 -6 0
-6 -9 8 0
-7 -6 -2 0
5 -7 -8 0
4 -7 -6 0
-6 -2 -5 0
-6 -5 4 0
-9 -5 -7 0

